tsp/input_files/ch.tsp
NAME: ch10
TYPE: TSP
COMMENT: 10-city problem
DIMENSION: 10
EDGE_WEIGHT_TYPE: EUC_2D
NODE_COORD_SECTION
1 17 37
2 39 128
3 12 55
4 97 97
5 67 124
6 86 10
7 117 27
8 41 115
9 111 68
10 13 49
EOF

